(declare-fun b37 () (_ FloatingPoint 8 24))
(declare-fun b20 () (_ FloatingPoint 11 53))
(declare-fun b11 () (_ FloatingPoint 8 24))
(declare-fun b13 () (_ FloatingPoint 8 24))
(declare-fun b16 () (_ FloatingPoint 8 24))
(declare-fun b34 () (_ FloatingPoint 8 24))
(assert (let ((.def_29 (fp.lt b16 b37)))
(let ((.def_27 (fp.lt b34 b16)))
(let ((.def_25 (fp.lt b13 b37)))
(let ((.def_23 (fp.lt b34 b13)))
(let ((.def_21 (fp.lt b11 b37)))
(let ((.def_13 (fp.mul RNE b11 b13)))
(let ((.def_15 (fp.mul RNE .def_13 b16)))
(let ((.def_16 ((_ to_fp 11 53) RNE .def_15)))
(let ((.def_18 (fp.lt b20 .def_16)))
(let ((.def_11 (fp.lt b34 b11)))
(let ((.def_19 (and .def_11 .def_18)))
(let ((.def_22 (and .def_19 .def_21)))
(let ((.def_24 (and .def_22 .def_23)))
(let ((.def_26 (and .def_24 .def_25)))
(let ((.def_28 (and .def_26 .def_27)))
(let ((.def_30 (and .def_28 .def_29)))
.def_30)))))))))))))))))
(check-sat)
